WARNING: for repeatability, setting FPU to use double precision
============================[ Problem Statistics ]=============================
|                                                                             |
|  Number of variables:           100                                         |
|  Number of clauses:             449                                         |
|  Parse time:                   0.00 s                                       |
|  Eliminated clauses:           0.00 Mb                                      |
|  Simplification time:          0.00 s                                       |
|                                                                             |
============================[ Search Statistics ]==============================
| Conflicts |          ORIGINAL         |          LEARNT          | Progress |
|           |    Vars  Clauses Literals |    Limit  Clauses Lit/Cl |          |
===============================================================================
|       100 |      98      444     1341 |      162      100      7 |  0.010 % |
|       250 |      97      433     1308 |      179      111      6 |  1.020 % |
===============================================================================
restarts              : 3
conflicts             : 257            (77997 /sec)
decisions             : 322            (0.00 % random) (97724 /sec)
propagations          : 5707           (1732018 /sec)
conflict literals     : 1504           (21.05 % deleted)
Memory used           : 13.00 MB
CPU time              : 0.003295 s

SATISFIABLE
